857758
19, 95, 17, 79, 26, 25, 73, 22, 84, 92, 39, 14, 81, 86, 94, 40, 66, 4, 7, 78, 51, 12, 29, 1, 47, 57, 45, 87, 76, 38, 88, 50, 36, 99, 68, 80, 37, 48, 33, 9, 70, 74, 32, 60, 31, 62, 10, 56, 18, 69, 75, 6, 41, 77, 20, 21, 96, 30, 49, 93, 13, 63, 72, 55, 44, 91, 53, 8, 89, 85, 3, 5, 64, 27, 2, 42, 97, 35, 83, 15, 16, 82, 58, 61, 67, 46, 34, 71, 28, 11, 23, 98, 54, 65, 52, 43, 24, 90, 59
